\ Model CVRP
\ LP format - for model browsing. Use MPS format to capture full model detail.
Minimize
  62083.45075706168 x[0,1] + 92619.2458738789 x[0,2]
   + 75980.84706822953 x[0,3] + 101625.4238000992 x[0,4]
   + 47251.8595261889 x[0,5] + 66565.42641789762 x[0,6]
   + 68799.80227187014 x[0,7] + 76584.11616979206 x[0,8]
   + 62083.45075706168 x[1,0] + 30724.0447708218 x[1,2]
   + 14000.57997872958 x[1,3] + 39611.18953380451 x[1,4]
   + 16718.70685101694 x[1,5] + 47592.8992656855 x[1,6]
   + 45860.53234725662 x[1,7] + 66520.13269562928 x[1,8]
   + 92619.2458738789 x[2,0] + 30724.0447708218 x[2,1]
   + 17629.66469014685 x[2,3] + 9127.961719586452 x[2,4]
   + 47025.49984297472 x[2,5] + 60487.1984917697 x[2,6]
   + 57235.61298335325 x[2,7] + 77620.86378989994 x[2,8]
   + 75980.84706822953 x[3,0] + 14000.57997872958 x[3,1]
   + 17629.66469014685 x[3,2] + 26082.538589795 x[3,4]
   + 29583.53948070054 x[3,5] + 54859.99001570892 x[3,6]
   + 52353.33200903708 x[3,7] + 73479.29607975714 x[3,8]
   + 101625.4238000992 x[4,0] + 39611.18953380451 x[4,1]
   + 9127.961719586452 x[4,2] + 26082.538589795 x[4,3]
   + 55662.22022436842 x[4,5] + 68081.90389305403 x[4,6]
   + 64674.13028937535 x[4,7] + 84550.36981107821 x[4,8]
   + 47251.8595261889 x[5,0] + 16718.70685101694 x[5,1]
   + 47025.49984297472 x[5,2] + 29583.53948070054 x[5,3]
   + 55662.22022436842 x[5,4] + 52351.56472019041 x[5,6]
   + 51790.83251134415 x[5,7] + 70451.32135172309 x[5,8]
   + 66565.42641789762 x[6,0] + 47592.8992656855 x[6,1]
   + 60487.1984917697 x[6,2] + 54859.99001570892 x[6,3]
   + 68081.90389305403 x[6,4] + 52351.56472019041 x[6,5]
   + 3828.660559391565 x[6,7] + 18931.15423127802 x[6,8]
   + 68799.80227187014 x[7,0] + 45860.53234725662 x[7,1]
   + 57235.61298335325 x[7,2] + 52353.33200903708 x[7,3]
   + 64674.13028937535 x[7,4] + 51790.83251134415 x[7,5]
   + 3828.660559391565 x[7,6] + 21125.96503789985 x[7,8]
   + 76584.11616979206 x[8,0] + 66520.13269562928 x[8,1]
   + 77620.86378989994 x[8,2] + 73479.29607975714 x[8,3]
   + 84550.36981107821 x[8,4] + 70451.32135172309 x[8,5]
   + 18931.15423127802 x[8,6] + 21125.96503789985 x[8,7]
Subject To
 4a[1]: x[1,0] + x[1,2] + x[1,3] + x[1,4] + x[1,5] + x[1,6] + x[1,7]
   + x[1,8] = 1
 4a[2]: x[2,0] + x[2,1] + x[2,3] + x[2,4] + x[2,5] + x[2,6] + x[2,7]
   + x[2,8] = 1
 4a[3]: x[3,0] + x[3,1] + x[3,2] + x[3,4] + x[3,5] + x[3,6] + x[3,7]
   + x[3,8] = 1
 4a[4]: x[4,0] + x[4,1] + x[4,2] + x[4,3] + x[4,5] + x[4,6] + x[4,7]
   + x[4,8] = 1
 4a[5]: x[5,0] + x[5,1] + x[5,2] + x[5,3] + x[5,4] + x[5,6] + x[5,7]
   + x[5,8] = 1
 4a[6]: x[6,0] + x[6,1] + x[6,2] + x[6,3] + x[6,4] + x[6,5] + x[6,7]
   + x[6,8] = 1
 4a[7]: x[7,0] + x[7,1] + x[7,2] + x[7,3] + x[7,4] + x[7,5] + x[7,6]
   + x[7,8] = 1
 4a[8]: x[8,0] + x[8,1] + x[8,2] + x[8,3] + x[8,4] + x[8,5] + x[8,6]
   + x[8,7] = 1
 4b[0]: x[0,1] + x[0,2] + x[0,3] + x[0,4] + x[0,5] + x[0,6] + x[0,7]
   + x[0,8] - x[1,0] - x[2,0] - x[3,0] - x[4,0] - x[5,0] - x[6,0] - x[7,0]
   - x[8,0] = 0
 4b[1]: - x[0,1] + x[1,0] + x[1,2] + x[1,3] + x[1,4] + x[1,5] + x[1,6]
   + x[1,7] + x[1,8] - x[2,1] - x[3,1] - x[4,1] - x[5,1] - x[6,1] - x[7,1]
   - x[8,1] = 0
 4b[2]: - x[0,2] - x[1,2] + x[2,0] + x[2,1] + x[2,3] + x[2,4] + x[2,5]
   + x[2,6] + x[2,7] + x[2,8] - x[3,2] - x[4,2] - x[5,2] - x[6,2] - x[7,2]
   - x[8,2] = 0
 4b[3]: - x[0,3] - x[1,3] - x[2,3] + x[3,0] + x[3,1] + x[3,2] + x[3,4]
   + x[3,5] + x[3,6] + x[3,7] + x[3,8] - x[4,3] - x[5,3] - x[6,3] - x[7,3]
   - x[8,3] = 0
 4b[4]: - x[0,4] - x[1,4] - x[2,4] - x[3,4] + x[4,0] + x[4,1] + x[4,2]
   + x[4,3] + x[4,5] + x[4,6] + x[4,7] + x[4,8] - x[5,4] - x[6,4] - x[7,4]
   - x[8,4] = 0
 4b[5]: - x[0,5] - x[1,5] - x[2,5] - x[3,5] - x[4,5] + x[5,0] + x[5,1]
   + x[5,2] + x[5,3] + x[5,4] + x[5,6] + x[5,7] + x[5,8] - x[6,5] - x[7,5]
   - x[8,5] = 0
 4b[6]: - x[0,6] - x[1,6] - x[2,6] - x[3,6] - x[4,6] - x[5,6] + x[6,0]
   + x[6,1] + x[6,2] + x[6,3] + x[6,4] + x[6,5] + x[6,7] + x[6,8] - x[7,6]
   - x[8,6] = 0
 4b[7]: - x[0,7] - x[1,7] - x[2,7] - x[3,7] - x[4,7] - x[5,7] - x[6,7]
   + x[7,0] + x[7,1] + x[7,2] + x[7,3] + x[7,4] + x[7,5] + x[7,6] + x[7,8]
   - x[8,7] = 0
 4b[8]: - x[0,8] - x[1,8] - x[2,8] - x[3,8] - x[4,8] - x[5,8] - x[6,8]
   - x[7,8] + x[8,0] + x[8,1] + x[8,2] + x[8,3] + x[8,4] + x[8,5] + x[8,6]
   + x[8,7] = 0
 5a[1]: - x[1,0] + sigma[1,1] + sigma[1,2] + sigma[1,3] + sigma[1,4]
   + sigma[1,5] + sigma[1,6] + sigma[1,7] + sigma[1,8] <= 0
 5a[2]: - x[2,0] + sigma[2,1] + sigma[2,2] + sigma[2,3] + sigma[2,4]
   + sigma[2,5] + sigma[2,6] + sigma[2,7] + sigma[2,8] <= 0
 5a[3]: - x[3,0] + sigma[3,1] + sigma[3,2] + sigma[3,3] + sigma[3,4]
   + sigma[3,5] + sigma[3,6] + sigma[3,7] + sigma[3,8] <= 0
 5a[4]: - x[4,0] + sigma[4,1] + sigma[4,2] + sigma[4,3] + sigma[4,4]
   + sigma[4,5] + sigma[4,6] + sigma[4,7] + sigma[4,8] <= 0
 5a[5]: - x[5,0] + sigma[5,1] + sigma[5,2] + sigma[5,3] + sigma[5,4]
   + sigma[5,5] + sigma[5,6] + sigma[5,7] + sigma[5,8] <= 0
 5a[6]: - x[6,0] + sigma[6,1] + sigma[6,2] + sigma[6,3] + sigma[6,4]
   + sigma[6,5] + sigma[6,6] + sigma[6,7] + sigma[6,8] <= 0
 5a[7]: - x[7,0] + sigma[7,1] + sigma[7,2] + sigma[7,3] + sigma[7,4]
   + sigma[7,5] + sigma[7,6] + sigma[7,7] + sigma[7,8] <= 0
 5a[8]: - x[8,0] + sigma[8,1] + sigma[8,2] + sigma[8,3] + sigma[8,4]
   + sigma[8,5] + sigma[8,6] + sigma[8,7] + sigma[8,8] <= 0
 5b[1]: - x[0,1] + sigma[1,1] + sigma[2,1] + sigma[3,1] + sigma[4,1]
   + sigma[5,1] + sigma[6,1] + sigma[7,1] + sigma[8,1] <= 0
 5b[2]: - x[0,2] + sigma[1,2] + sigma[2,2] + sigma[3,2] + sigma[4,2]
   + sigma[5,2] + sigma[6,2] + sigma[7,2] + sigma[8,2] <= 0
 5b[3]: - x[0,3] + sigma[1,3] + sigma[2,3] + sigma[3,3] + sigma[4,3]
   + sigma[5,3] + sigma[6,3] + sigma[7,3] + sigma[8,3] <= 0
 5b[4]: - x[0,4] + sigma[1,4] + sigma[2,4] + sigma[3,4] + sigma[4,4]
   + sigma[5,4] + sigma[6,4] + sigma[7,4] + sigma[8,4] <= 0
 5b[5]: - x[0,5] + sigma[1,5] + sigma[2,5] + sigma[3,5] + sigma[4,5]
   + sigma[5,5] + sigma[6,5] + sigma[7,5] + sigma[8,5] <= 0
 5b[6]: - x[0,6] + sigma[1,6] + sigma[2,6] + sigma[3,6] + sigma[4,6]
   + sigma[5,6] + sigma[6,6] + sigma[7,6] + sigma[8,6] <= 0
 5b[7]: - x[0,7] + sigma[1,7] + sigma[2,7] + sigma[3,7] + sigma[4,7]
   + sigma[5,7] + sigma[6,7] + sigma[7,7] + sigma[8,7] <= 0
 5b[8]: - x[0,8] + sigma[1,8] + sigma[2,8] + sigma[3,8] + sigma[4,8]
   + sigma[5,8] + sigma[6,8] + sigma[7,8] + sigma[8,8] <= 0
 5c: x[0,1] + x[0,2] + x[0,3] + x[0,4] + x[0,5] + x[0,6] + x[0,7] + x[0,8]
   - sigma[1,2] - sigma[1,3] - sigma[1,4] - sigma[1,5] - sigma[1,6]
   - sigma[1,7] - sigma[1,8] - sigma[2,1] - sigma[2,3] - sigma[2,4]
   - sigma[2,5] - sigma[2,6] - sigma[2,7] - sigma[2,8] - sigma[3,1]
   - sigma[3,2] - sigma[3,4] - sigma[3,5] - sigma[3,6] - sigma[3,7]
   - sigma[3,8] - sigma[4,1] - sigma[4,2] - sigma[4,3] - sigma[4,5]
   - sigma[4,6] - sigma[4,7] - sigma[4,8] - sigma[5,1] - sigma[5,2]
   - sigma[5,3] - sigma[5,4] - sigma[5,6] - sigma[5,7] - sigma[5,8]
   - sigma[6,1] - sigma[6,2] - sigma[6,3] - sigma[6,4] - sigma[6,5]
   - sigma[6,7] - sigma[6,8] - sigma[7,1] - sigma[7,2] - sigma[7,3]
   - sigma[7,4] - sigma[7,5] - sigma[7,6] - sigma[7,8] - sigma[8,1]
   - sigma[8,2] - sigma[8,3] - sigma[8,4] - sigma[8,5] - sigma[8,6]
   - sigma[8,7] <= 10
 6a[1]: y[0,1] - y[1,0] - y[1,2] - y[1,3] - y[1,4] - y[1,5] - y[1,6]
   - y[1,7] - y[1,8] + y[2,1] + y[3,1] + y[4,1] + y[5,1] + y[6,1] + y[7,1]
   + y[8,1] = 2
 6a[2]: y[0,2] + y[1,2] - y[2,0] - y[2,1] - y[2,3] - y[2,4] - y[2,5]
   - y[2,6] - y[2,7] - y[2,8] + y[3,2] + y[4,2] + y[5,2] + y[6,2] + y[7,2]
   + y[8,2] = 2
 6a[3]: y[0,3] + y[1,3] + y[2,3] - y[3,0] - y[3,1] - y[3,2] - y[3,4]
   - y[3,5] - y[3,6] - y[3,7] - y[3,8] + y[4,3] + y[5,3] + y[6,3] + y[7,3]
   + y[8,3] = 2
 6a[4]: y[0,4] + y[1,4] + y[2,4] + y[3,4] - y[4,0] - y[4,1] - y[4,2]
   - y[4,3] - y[4,5] - y[4,6] - y[4,7] - y[4,8] + y[5,4] + y[6,4] + y[7,4]
   + y[8,4] = 2
 6a[5]: y[0,5] + y[1,5] + y[2,5] + y[3,5] + y[4,5] - y[5,0] - y[5,1]
   - y[5,2] - y[5,3] - y[5,4] - y[5,6] - y[5,7] - y[5,8] + y[6,5] + y[7,5]
   + y[8,5] = 2
 6a[6]: y[0,6] + y[1,6] + y[2,6] + y[3,6] + y[4,6] + y[5,6] - y[6,0]
   - y[6,1] - y[6,2] - y[6,3] - y[6,4] - y[6,5] - y[6,7] - y[6,8] + y[7,6]
   + y[8,6] = 2
 6a[7]: y[0,7] + y[1,7] + y[2,7] + y[3,7] + y[4,7] + y[5,7] + y[6,7]
   - y[7,0] - y[7,1] - y[7,2] - y[7,3] - y[7,4] - y[7,5] - y[7,6] - y[7,8]
   + y[8,7] = 2
 6a[8]: y[0,8] + y[1,8] + y[2,8] + y[3,8] + y[4,8] + y[5,8] + y[6,8]
   + y[7,8] - y[8,0] - y[8,1] - y[8,2] - y[8,3] - y[8,4] - y[8,5] - y[8,6]
   - y[8,7] = 2
 6b[0,1]: - 1e+06 x[0,1] + y[0,1] <= 0
 6b[0,2]: - 1e+06 x[0,2] + y[0,2] <= 0
 6b[0,3]: - 1e+06 x[0,3] + y[0,3] <= 0
 6b[0,4]: - 1e+06 x[0,4] + y[0,4] <= 0
 6b[0,5]: - 1e+06 x[0,5] + y[0,5] <= 0
 6b[0,6]: - 1e+06 x[0,6] + y[0,6] <= 0
 6b[0,7]: - 1e+06 x[0,7] + y[0,7] <= 0
 6b[0,8]: - 1e+06 x[0,8] + y[0,8] <= 0
 6b[1,0]: - 1e+06 x[1,0] + y[1,0] <= 0
 6b[1,2]: - 1e+06 x[1,2] + y[1,2] <= 0
 6b[1,3]: - 1e+06 x[1,3] + y[1,3] <= 0
 6b[1,4]: - 1e+06 x[1,4] + y[1,4] <= 0
 6b[1,5]: - 1e+06 x[1,5] + y[1,5] <= 0
 6b[1,6]: - 1e+06 x[1,6] + y[1,6] <= 0
 6b[1,7]: - 1e+06 x[1,7] + y[1,7] <= 0
 6b[1,8]: - 1e+06 x[1,8] + y[1,8] <= 0
 6b[2,0]: - 1e+06 x[2,0] + y[2,0] <= 0
 6b[2,1]: - 1e+06 x[2,1] + y[2,1] <= 0
 6b[2,3]: - 1e+06 x[2,3] + y[2,3] <= 0
 6b[2,4]: - 1e+06 x[2,4] + y[2,4] <= 0
 6b[2,5]: - 1e+06 x[2,5] + y[2,5] <= 0
 6b[2,6]: - 1e+06 x[2,6] + y[2,6] <= 0
 6b[2,7]: - 1e+06 x[2,7] + y[2,7] <= 0
 6b[2,8]: - 1e+06 x[2,8] + y[2,8] <= 0
 6b[3,0]: - 1e+06 x[3,0] + y[3,0] <= 0
 6b[3,1]: - 1e+06 x[3,1] + y[3,1] <= 0
 6b[3,2]: - 1e+06 x[3,2] + y[3,2] <= 0
 6b[3,4]: - 1e+06 x[3,4] + y[3,4] <= 0
 6b[3,5]: - 1e+06 x[3,5] + y[3,5] <= 0
 6b[3,6]: - 1e+06 x[3,6] + y[3,6] <= 0
 6b[3,7]: - 1e+06 x[3,7] + y[3,7] <= 0
 6b[3,8]: - 1e+06 x[3,8] + y[3,8] <= 0
 6b[4,0]: - 1e+06 x[4,0] + y[4,0] <= 0
 6b[4,1]: - 1e+06 x[4,1] + y[4,1] <= 0
 6b[4,2]: - 1e+06 x[4,2] + y[4,2] <= 0
 6b[4,3]: - 1e+06 x[4,3] + y[4,3] <= 0
 6b[4,5]: - 1e+06 x[4,5] + y[4,5] <= 0
 6b[4,6]: - 1e+06 x[4,6] + y[4,6] <= 0
 6b[4,7]: - 1e+06 x[4,7] + y[4,7] <= 0
 6b[4,8]: - 1e+06 x[4,8] + y[4,8] <= 0
 6b[5,0]: - 1e+06 x[5,0] + y[5,0] <= 0
 6b[5,1]: - 1e+06 x[5,1] + y[5,1] <= 0
 6b[5,2]: - 1e+06 x[5,2] + y[5,2] <= 0
 6b[5,3]: - 1e+06 x[5,3] + y[5,3] <= 0
 6b[5,4]: - 1e+06 x[5,4] + y[5,4] <= 0
 6b[5,6]: - 1e+06 x[5,6] + y[5,6] <= 0
 6b[5,7]: - 1e+06 x[5,7] + y[5,7] <= 0
 6b[5,8]: - 1e+06 x[5,8] + y[5,8] <= 0
 6b[6,0]: - 1e+06 x[6,0] + y[6,0] <= 0
 6b[6,1]: - 1e+06 x[6,1] + y[6,1] <= 0
 6b[6,2]: - 1e+06 x[6,2] + y[6,2] <= 0
 6b[6,3]: - 1e+06 x[6,3] + y[6,3] <= 0
 6b[6,4]: - 1e+06 x[6,4] + y[6,4] <= 0
 6b[6,5]: - 1e+06 x[6,5] + y[6,5] <= 0
 6b[6,7]: - 1e+06 x[6,7] + y[6,7] <= 0
 6b[6,8]: - 1e+06 x[6,8] + y[6,8] <= 0
 6b[7,0]: - 1e+06 x[7,0] + y[7,0] <= 0
 6b[7,1]: - 1e+06 x[7,1] + y[7,1] <= 0
 6b[7,2]: - 1e+06 x[7,2] + y[7,2] <= 0
 6b[7,3]: - 1e+06 x[7,3] + y[7,3] <= 0
 6b[7,4]: - 1e+06 x[7,4] + y[7,4] <= 0
 6b[7,5]: - 1e+06 x[7,5] + y[7,5] <= 0
 6b[7,6]: - 1e+06 x[7,6] + y[7,6] <= 0
 6b[7,8]: - 1e+06 x[7,8] + y[7,8] <= 0
 6b[8,0]: - 1e+06 x[8,0] + y[8,0] <= 0
 6b[8,1]: - 1e+06 x[8,1] + y[8,1] <= 0
 6b[8,2]: - 1e+06 x[8,2] + y[8,2] <= 0
 6b[8,3]: - 1e+06 x[8,3] + y[8,3] <= 0
 6b[8,4]: - 1e+06 x[8,4] + y[8,4] <= 0
 6b[8,5]: - 1e+06 x[8,5] + y[8,5] <= 0
 6b[8,6]: - 1e+06 x[8,6] + y[8,6] <= 0
 6b[8,7]: - 1e+06 x[8,7] + y[8,7] <= 0
 7a[0,1]: 1e+06 x[0,1] + t[0] - t[1] <= 998280.76545004
 7a[0,2]: 1e+06 x[0,2] + t[0] - t[2] <= 997435.1585558491
 7a[0,3]: 1e+06 x[0,3] + t[0] - t[3] <= 997895.9143568535
 7a[0,4]: 1e+06 x[0,4] + t[0] - t[4] <= 997185.7566288455
 7a[0,5]: 1e+06 x[0,5] + t[0] - t[5] <= 998691.4865643475
 7a[0,6]: 1e+06 x[0,6] + t[0] - t[6] <= 998156.6491627811
 7a[0,7]: 1e+06 x[0,7] + t[0] - t[7] <= 998094.7741200941
 7a[0,8]: 1e+06 x[0,8] + t[0] - t[8] <= 997879.2084381314
 7a[1,2]: 1e+06 x[1,2] + t[1] - t[2] <= 999149.1800368634
 7a[1,3]: 1e+06 x[1,3] + t[1] - t[3] <= 999612.2915120634
 7a[1,4]: 1e+06 x[1,4] + t[1] - t[4] <= 998903.074413856
 7a[1,5]: 1e+06 x[1,5] + t[1] - t[5] <= 999537.0202832088
 7a[1,6]: 1e+06 x[1,6] + t[1] - t[6] <= 998682.0423840402
 7a[1,7]: 1e+06 x[1,7] + t[1] - t[7] <= 998730.0156365423
 7a[1,8]: 1e+06 x[1,8] + t[1] - t[8] <= 998157.9034508605
 7a[2,1]: 1e+06 x[2,1] - t[1] + t[2] <= 999149.1800368634
 7a[2,3]: 1e+06 x[2,3] + t[2] - t[3] <= 999511.793750671
 7a[2,4]: 1e+06 x[2,4] + t[2] - t[4] <= 999747.2255976809
 7a[2,5]: 1e+06 x[2,5] + t[2] - t[5] <= 998697.754988273
 7a[2,6]: 1e+06 x[2,6] + t[2] - t[6] <= 998324.9693725262
 7a[2,7]: 1e+06 x[2,7] + t[2] - t[7] <= 998415.0133066189
 7a[2,8]: 1e+06 x[2,8] + t[2] - t[8] <= 997850.4984952023
 7a[3,1]: 1e+06 x[3,1] - t[1] + t[3] <= 999612.2915120634
 7a[3,2]: 1e+06 x[3,2] - t[2] + t[3] <= 999511.793750671
 7a[3,4]: 1e+06 x[3,4] + t[3] - t[4] <= 999277.7140937331
 7a[3,5]: 1e+06 x[3,5] + t[3] - t[5] <= 999180.7632700001
 7a[3,6]: 1e+06 x[3,6] + t[3] - t[6] <= 998480.7998090419
 7a[3,7]: 1e+06 x[3,7] + t[3] - t[7] <= 998550.2149752005
 7a[3,8]: 1e+06 x[3,8] + t[3] - t[8] <= 997965.1880978493
 7a[4,1]: 1e+06 x[4,1] - t[1] + t[4] <= 998903.074413856
 7a[4,2]: 1e+06 x[4,2] - t[2] + t[4] <= 999747.2255976809
 7a[4,3]: 1e+06 x[4,3] - t[3] + t[4] <= 999277.7140937331
 7a[4,5]: 1e+06 x[4,5] + t[4] - t[5] <= 998458.5841964281
 7a[4,6]: 1e+06 x[4,6] + t[4] - t[6] <= 998114.6543890091
 7a[4,7]: 1e+06 x[4,7] + t[4] - t[7] <= 998209.0235332246
 7a[4,8]: 1e+06 x[4,8] + t[4] - t[8] <= 997658.6044232638
 7a[5,1]: 1e+06 x[5,1] - t[1] + t[5] <= 999537.0202832088
 7a[5,2]: 1e+06 x[5,2] - t[2] + t[5] <= 998697.754988273
 7a[5,3]: 1e+06 x[5,3] - t[3] + t[5] <= 999180.7632700001
 7a[5,4]: 1e+06 x[5,4] - t[4] + t[5] <= 998458.5841964281
 7a[5,6]: 1e+06 x[5,6] + t[5] - t[6] <= 998550.2639155221
 7a[5,7]: 1e+06 x[5,7] + t[5] - t[7] <= 998565.7918891603
 7a[5,8]: 1e+06 x[5,8] + t[5] - t[8] <= 998049.039731503
 7a[6,1]: 1e+06 x[6,1] - t[1] + t[6] <= 998682.0423840402
 7a[6,2]: 1e+06 x[6,2] - t[2] + t[6] <= 998324.9693725262
 7a[6,3]: 1e+06 x[6,3] - t[3] + t[6] <= 998480.7998090419
 7a[6,4]: 1e+06 x[6,4] - t[4] + t[6] <= 998114.6543890091
 7a[6,5]: 1e+06 x[6,5] - t[5] + t[6] <= 998550.2639155221
 7a[6,7]: 1e+06 x[6,7] + t[6] - t[7] <= 999893.975521117
 7a[6,8]: 1e+06 x[6,8] + t[6] - t[8] <= 999475.75249075
 7a[7,1]: 1e+06 x[7,1] - t[1] + t[7] <= 998730.0156365423
 7a[7,2]: 1e+06 x[7,2] - t[2] + t[7] <= 998415.0133066189
 7a[7,3]: 1e+06 x[7,3] - t[3] + t[7] <= 998550.2149752005
 7a[7,4]: 1e+06 x[7,4] - t[4] + t[7] <= 998209.0235332246
 7a[7,5]: 1e+06 x[7,5] - t[5] + t[7] <= 998565.7918891603
 7a[7,6]: 1e+06 x[7,6] - t[6] + t[7] <= 999893.975521117
 7a[7,8]: 1e+06 x[7,8] + t[7] - t[8] <= 999414.9730958652
 7a[8,1]: 1e+06 x[8,1] - t[1] + t[8] <= 998157.9034508605
 7a[8,2]: 1e+06 x[8,2] - t[2] + t[8] <= 997850.4984952023
 7a[8,3]: 1e+06 x[8,3] - t[3] + t[8] <= 997965.1880978493
 7a[8,4]: 1e+06 x[8,4] - t[4] + t[8] <= 997658.6044232638
 7a[8,5]: 1e+06 x[8,5] - t[5] + t[8] <= 998049.039731503
 7a[8,6]: 1e+06 x[8,6] - t[6] + t[8] <= 999475.75249075
 7a[8,7]: 1e+06 x[8,7] - t[7] + t[8] <= 999414.9730958652
 7b[1]: 1e+06 x[1,0] + t[1] - a[1] <= 998280.76545004
 7b[2]: 1e+06 x[2,0] + t[2] - a[2] <= 997435.1585558491
 7b[3]: 1e+06 x[3,0] + t[3] - a[3] <= 997895.9143568535
 7b[4]: 1e+06 x[4,0] + t[4] - a[4] <= 997185.7566288455
 7b[5]: 1e+06 x[5,0] + t[5] - a[5] <= 998691.4865643475
 7b[6]: 1e+06 x[6,0] + t[6] - a[6] <= 998156.6491627811
 7b[7]: 1e+06 x[7,0] + t[7] - a[7] <= 998094.7741200941
 7b[8]: 1e+06 x[8,0] + t[8] - a[8] <= 997879.2084381314
 7c[1,2]: 1e+06 sigma[1,2] - t[2] + a[1] <= 997435.1585558491
 7c[1,3]: 1e+06 sigma[1,3] - t[3] + a[1] <= 997895.9143568535
 7c[1,4]: 1e+06 sigma[1,4] - t[4] + a[1] <= 997185.7566288455
 7c[1,5]: 1e+06 sigma[1,5] - t[5] + a[1] <= 998691.4865643475
 7c[1,6]: 1e+06 sigma[1,6] - t[6] + a[1] <= 998156.6491627811
 7c[1,7]: 1e+06 sigma[1,7] - t[7] + a[1] <= 998094.7741200941
 7c[1,8]: 1e+06 sigma[1,8] - t[8] + a[1] <= 997879.2084381314
 7c[2,1]: 1e+06 sigma[2,1] - t[1] + a[2] <= 998280.76545004
 7c[2,3]: 1e+06 sigma[2,3] - t[3] + a[2] <= 997895.9143568535
 7c[2,4]: 1e+06 sigma[2,4] - t[4] + a[2] <= 997185.7566288455
 7c[2,5]: 1e+06 sigma[2,5] - t[5] + a[2] <= 998691.4865643475
 7c[2,6]: 1e+06 sigma[2,6] - t[6] + a[2] <= 998156.6491627811
 7c[2,7]: 1e+06 sigma[2,7] - t[7] + a[2] <= 998094.7741200941
 7c[2,8]: 1e+06 sigma[2,8] - t[8] + a[2] <= 997879.2084381314
 7c[3,1]: 1e+06 sigma[3,1] - t[1] + a[3] <= 998280.76545004
 7c[3,2]: 1e+06 sigma[3,2] - t[2] + a[3] <= 997435.1585558491
 7c[3,4]: 1e+06 sigma[3,4] - t[4] + a[3] <= 997185.7566288455
 7c[3,5]: 1e+06 sigma[3,5] - t[5] + a[3] <= 998691.4865643475
 7c[3,6]: 1e+06 sigma[3,6] - t[6] + a[3] <= 998156.6491627811
 7c[3,7]: 1e+06 sigma[3,7] - t[7] + a[3] <= 998094.7741200941
 7c[3,8]: 1e+06 sigma[3,8] - t[8] + a[3] <= 997879.2084381314
 7c[4,1]: 1e+06 sigma[4,1] - t[1] + a[4] <= 998280.76545004
 7c[4,2]: 1e+06 sigma[4,2] - t[2] + a[4] <= 997435.1585558491
 7c[4,3]: 1e+06 sigma[4,3] - t[3] + a[4] <= 997895.9143568535
 7c[4,5]: 1e+06 sigma[4,5] - t[5] + a[4] <= 998691.4865643475
 7c[4,6]: 1e+06 sigma[4,6] - t[6] + a[4] <= 998156.6491627811
 7c[4,7]: 1e+06 sigma[4,7] - t[7] + a[4] <= 998094.7741200941
 7c[4,8]: 1e+06 sigma[4,8] - t[8] + a[4] <= 997879.2084381314
 7c[5,1]: 1e+06 sigma[5,1] - t[1] + a[5] <= 998280.76545004
 7c[5,2]: 1e+06 sigma[5,2] - t[2] + a[5] <= 997435.1585558491
 7c[5,3]: 1e+06 sigma[5,3] - t[3] + a[5] <= 997895.9143568535
 7c[5,4]: 1e+06 sigma[5,4] - t[4] + a[5] <= 997185.7566288455
 7c[5,6]: 1e+06 sigma[5,6] - t[6] + a[5] <= 998156.6491627811
 7c[5,7]: 1e+06 sigma[5,7] - t[7] + a[5] <= 998094.7741200941
 7c[5,8]: 1e+06 sigma[5,8] - t[8] + a[5] <= 997879.2084381314
 7c[6,1]: 1e+06 sigma[6,1] - t[1] + a[6] <= 998280.76545004
 7c[6,2]: 1e+06 sigma[6,2] - t[2] + a[6] <= 997435.1585558491
 7c[6,3]: 1e+06 sigma[6,3] - t[3] + a[6] <= 997895.9143568535
 7c[6,4]: 1e+06 sigma[6,4] - t[4] + a[6] <= 997185.7566288455
 7c[6,5]: 1e+06 sigma[6,5] - t[5] + a[6] <= 998691.4865643475
 7c[6,7]: 1e+06 sigma[6,7] - t[7] + a[6] <= 998094.7741200941
 7c[6,8]: 1e+06 sigma[6,8] - t[8] + a[6] <= 997879.2084381314
 7c[7,1]: 1e+06 sigma[7,1] - t[1] + a[7] <= 998280.76545004
 7c[7,2]: 1e+06 sigma[7,2] - t[2] + a[7] <= 997435.1585558491
 7c[7,3]: 1e+06 sigma[7,3] - t[3] + a[7] <= 997895.9143568535
 7c[7,4]: 1e+06 sigma[7,4] - t[4] + a[7] <= 997185.7566288455
 7c[7,5]: 1e+06 sigma[7,5] - t[5] + a[7] <= 998691.4865643475
 7c[7,6]: 1e+06 sigma[7,6] - t[6] + a[7] <= 998156.6491627811
 7c[7,8]: 1e+06 sigma[7,8] - t[8] + a[7] <= 997879.2084381314
 7c[8,1]: 1e+06 sigma[8,1] - t[1] + a[8] <= 998280.76545004
 7c[8,2]: 1e+06 sigma[8,2] - t[2] + a[8] <= 997435.1585558491
 7c[8,3]: 1e+06 sigma[8,3] - t[3] + a[8] <= 997895.9143568535
 7c[8,4]: 1e+06 sigma[8,4] - t[4] + a[8] <= 997185.7566288455
 7c[8,5]: 1e+06 sigma[8,5] - t[5] + a[8] <= 998691.4865643475
 7c[8,6]: 1e+06 sigma[8,6] - t[6] + a[8] <= 998156.6491627811
 7c[8,7]: 1e+06 sigma[8,7] - t[7] + a[8] <= 998094.7741200941
 7d_7e[1]: t[1] <= 2500
 7d_7e[2]: t[2] <= 2500
 7d_7e[3]: t[3] <= 2500
 7d_7e[4]: t[4] <= 2500
 7d_7e[5]: t[5] <= 2500
 7d_7e[6]: t[6] <= 2500
 7d_7e[7]: t[7] <= 2500
 7d_7e[8]: t[8] <= 2500
 8a[0,1]: - 10 x[0,1] + y[0,1] <= 0
 8a[0,2]: - 10 x[0,2] + y[0,2] <= 0
 8a[0,3]: - 10 x[0,3] + y[0,3] <= 0
 8a[0,4]: - 10 x[0,4] + y[0,4] <= 0
 8a[0,5]: - 10 x[0,5] + y[0,5] <= 0
 8a[0,6]: - 10 x[0,6] + y[0,6] <= 0
 8a[0,7]: - 10 x[0,7] + y[0,7] <= 0
 8a[0,8]: - 10 x[0,8] + y[0,8] <= 0
 8a[1,0]: - 10 x[1,0] + y[1,0] <= 0
 8a[1,2]: - 10 x[1,2] + y[1,2] <= 0
 8a[1,3]: - 10 x[1,3] + y[1,3] <= 0
 8a[1,4]: - 10 x[1,4] + y[1,4] <= 0
 8a[1,5]: - 10 x[1,5] + y[1,5] <= 0
 8a[1,6]: - 10 x[1,6] + y[1,6] <= 0
 8a[1,7]: - 10 x[1,7] + y[1,7] <= 0
 8a[1,8]: - 10 x[1,8] + y[1,8] <= 0
 8a[2,0]: - 10 x[2,0] + y[2,0] <= 0
 8a[2,1]: - 10 x[2,1] + y[2,1] <= 0
 8a[2,3]: - 10 x[2,3] + y[2,3] <= 0
 8a[2,4]: - 10 x[2,4] + y[2,4] <= 0
 8a[2,5]: - 10 x[2,5] + y[2,5] <= 0
 8a[2,6]: - 10 x[2,6] + y[2,6] <= 0
 8a[2,7]: - 10 x[2,7] + y[2,7] <= 0
 8a[2,8]: - 10 x[2,8] + y[2,8] <= 0
 8a[3,0]: - 10 x[3,0] + y[3,0] <= 0
 8a[3,1]: - 10 x[3,1] + y[3,1] <= 0
 8a[3,2]: - 10 x[3,2] + y[3,2] <= 0
 8a[3,4]: - 10 x[3,4] + y[3,4] <= 0
 8a[3,5]: - 10 x[3,5] + y[3,5] <= 0
 8a[3,6]: - 10 x[3,6] + y[3,6] <= 0
 8a[3,7]: - 10 x[3,7] + y[3,7] <= 0
 8a[3,8]: - 10 x[3,8] + y[3,8] <= 0
 8a[4,0]: - 10 x[4,0] + y[4,0] <= 0
 8a[4,1]: - 10 x[4,1] + y[4,1] <= 0
 8a[4,2]: - 10 x[4,2] + y[4,2] <= 0
 8a[4,3]: - 10 x[4,3] + y[4,3] <= 0
 8a[4,5]: - 10 x[4,5] + y[4,5] <= 0
 8a[4,6]: - 10 x[4,6] + y[4,6] <= 0
 8a[4,7]: - 10 x[4,7] + y[4,7] <= 0
 8a[4,8]: - 10 x[4,8] + y[4,8] <= 0
 8a[5,0]: - 10 x[5,0] + y[5,0] <= 0
 8a[5,1]: - 10 x[5,1] + y[5,1] <= 0
 8a[5,2]: - 10 x[5,2] + y[5,2] <= 0
 8a[5,3]: - 10 x[5,3] + y[5,3] <= 0
 8a[5,4]: - 10 x[5,4] + y[5,4] <= 0
 8a[5,6]: - 10 x[5,6] + y[5,6] <= 0
 8a[5,7]: - 10 x[5,7] + y[5,7] <= 0
 8a[5,8]: - 10 x[5,8] + y[5,8] <= 0
 8a[6,0]: - 10 x[6,0] + y[6,0] <= 0
 8a[6,1]: - 10 x[6,1] + y[6,1] <= 0
 8a[6,2]: - 10 x[6,2] + y[6,2] <= 0
 8a[6,3]: - 10 x[6,3] + y[6,3] <= 0
 8a[6,4]: - 10 x[6,4] + y[6,4] <= 0
 8a[6,5]: - 10 x[6,5] + y[6,5] <= 0
 8a[6,7]: - 10 x[6,7] + y[6,7] <= 0
 8a[6,8]: - 10 x[6,8] + y[6,8] <= 0
 8a[7,0]: - 10 x[7,0] + y[7,0] <= 0
 8a[7,1]: - 10 x[7,1] + y[7,1] <= 0
 8a[7,2]: - 10 x[7,2] + y[7,2] <= 0
 8a[7,3]: - 10 x[7,3] + y[7,3] <= 0
 8a[7,4]: - 10 x[7,4] + y[7,4] <= 0
 8a[7,5]: - 10 x[7,5] + y[7,5] <= 0
 8a[7,6]: - 10 x[7,6] + y[7,6] <= 0
 8a[7,8]: - 10 x[7,8] + y[7,8] <= 0
 8a[8,0]: - 10 x[8,0] + y[8,0] <= 0
 8a[8,1]: - 10 x[8,1] + y[8,1] <= 0
 8a[8,2]: - 10 x[8,2] + y[8,2] <= 0
 8a[8,3]: - 10 x[8,3] + y[8,3] <= 0
 8a[8,4]: - 10 x[8,4] + y[8,4] <= 0
 8a[8,5]: - 10 x[8,5] + y[8,5] <= 0
 8a[8,6]: - 10 x[8,6] + y[8,6] <= 0
 8a[8,7]: - 10 x[8,7] + y[8,7] <= 0
 9a[0,1]: 1e+06 x[0,1] + f[0] - f[1] <= 951001.8153261391
 9a[0,2]: 1e+06 x[0,2] + f[0] - f[2] <= 926902.0188416983
 9a[0,3]: 1e+06 x[0,3] + f[0] - f[3] <= 940033.5591703232
 9a[0,4]: 1e+06 x[0,4] + f[0] - f[4] <= 919794.0639220952
 9a[0,5]: 1e+06 x[0,5] + f[0] - f[5] <= 962707.3670839054
 9a[0,6]: 1e+06 x[0,6] + f[0] - f[6] <= 947464.5011392597
 9a[0,7]: 1e+06 x[0,7] + f[0] - f[7] <= 945701.0624226817
 9a[0,8]: 1e+06 x[0,8] + f[0] - f[8] <= 939557.4404867458
 9a[1,2]: 1e+06 x[1,2] + f[1] - f[2] <= 975751.6310506071
 9a[1,3]: 1e+06 x[1,3] + f[1] - f[3] <= 988950.3080938051
 9a[1,4]: 1e+06 x[1,4] + f[1] - f[4] <= 968737.620794896
 9a[1,5]: 1e+06 x[1,5] + f[1] - f[5] <= 986805.0780714522
 9a[1,6]: 1e+06 x[1,6] + f[1] - f[6] <= 962438.207945146
 9a[1,7]: 1e+06 x[1,7] + f[1] - f[7] <= 963805.4456414562
 9a[1,8]: 1e+06 x[1,8] + f[1] - f[8] <= 947500.248349526
 9a[2,1]: 1e+06 x[2,1] - f[1] + f[2] <= 975751.6310506071
 9a[2,3]: 1e+06 x[2,3] + f[2] - f[3] <= 986086.1218941216
 9a[2,4]: 1e+06 x[2,4] + f[2] - f[4] <= 992795.9295339047
 9a[2,5]: 1e+06 x[2,5] + f[2] - f[5] <= 962886.0171657806
 9a[2,6]: 1e+06 x[2,6] + f[2] - f[6] <= 952261.6271169962
 9a[2,7]: 1e+06 x[2,7] + f[2] - f[7] <= 954827.8792386394
 9a[2,8]: 1e+06 x[2,8] + f[2] - f[8] <= 938739.2071132658
 9a[3,1]: 1e+06 x[3,1] - f[1] + f[3] <= 988950.3080938051
 9a[3,2]: 1e+06 x[3,2] - f[2] + f[3] <= 986086.1218941216
 9a[3,4]: 1e+06 x[3,4] + f[3] - f[4] <= 979414.851671393
 9a[3,5]: 1e+06 x[3,5] + f[3] - f[5] <= 976651.753195002
 9a[3,6]: 1e+06 x[3,6] + f[3] - f[6] <= 956702.7945576927
 9a[3,7]: 1e+06 x[3,7] + f[3] - f[7] <= 958681.1267932144
 9a[3,8]: 1e+06 x[3,8] + f[3] - f[8] <= 942007.8607887027
 9a[4,1]: 1e+06 x[4,1] - f[1] + f[4] <= 968737.620794896
 9a[4,2]: 1e+06 x[4,2] - f[2] + f[4] <= 992795.9295339047
 9a[4,3]: 1e+06 x[4,3] - f[3] + f[4] <= 979414.851671393
 9a[4,5]: 1e+06 x[4,5] + f[4] - f[5] <= 956069.6495981984
 9a[4,6]: 1e+06 x[4,6] + f[4] - f[6] <= 946267.6500867589
 9a[4,7]: 1e+06 x[4,7] + f[4] - f[7] <= 948957.1706968994
 9a[4,8]: 1e+06 x[4,8] + f[4] - f[8] <= 933270.2260630187
 9a[5,1]: 1e+06 x[5,1] - f[1] + f[5] <= 986805.0780714522
 9a[5,2]: 1e+06 x[5,2] - f[2] + f[5] <= 962886.0171657806
 9a[5,3]: 1e+06 x[5,3] - f[3] + f[5] <= 976651.753195002
 9a[5,4]: 1e+06 x[5,4] - f[4] + f[5] <= 956069.6495981984
 9a[5,6]: 1e+06 x[5,6] + f[5] - f[6] <= 958682.5215923794
 9a[5,7]: 1e+06 x[5,7] + f[5] - f[7] <= 959125.0688410681
 9a[5,8]: 1e+06 x[5,8] + f[5] - f[8] <= 944397.6323478346
 9a[6,1]: 1e+06 x[6,1] - f[1] + f[6] <= 962438.207945146
 9a[6,2]: 1e+06 x[6,2] - f[2] + f[6] <= 952261.6271169962
 9a[6,3]: 1e+06 x[6,3] - f[3] + f[6] <= 956702.7945576927
 9a[6,4]: 1e+06 x[6,4] - f[4] + f[6] <= 946267.6500867589
 9a[6,5]: 1e+06 x[6,5] - f[5] + f[6] <= 958682.5215923794
 9a[6,7]: 1e+06 x[6,7] + f[6] - f[7] <= 996978.3023518347
 9a[6,8]: 1e+06 x[6,8] + f[6] - f[8] <= 985058.9459863747
 9a[7,1]: 1e+06 x[7,1] - f[1] + f[7] <= 963805.4456414562
 9a[7,2]: 1e+06 x[7,2] - f[2] + f[7] <= 954827.8792386394
 9a[7,3]: 1e+06 x[7,3] - f[3] + f[7] <= 958681.1267932144
 9a[7,4]: 1e+06 x[7,4] - f[4] + f[7] <= 948957.1706968994
 9a[7,5]: 1e+06 x[7,5] - f[5] + f[7] <= 959125.0688410681
 9a[7,6]: 1e+06 x[7,6] - f[6] + f[7] <= 996978.3023518347
 9a[7,8]: 1e+06 x[7,8] + f[7] - f[8] <= 983326.73323216
 9a[8,1]: 1e+06 x[8,1] - f[1] + f[8] <= 947500.248349526
 9a[8,2]: 1e+06 x[8,2] - f[2] + f[8] <= 938739.2071132658
 9a[8,3]: 1e+06 x[8,3] - f[3] + f[8] <= 942007.8607887027
 9a[8,4]: 1e+06 x[8,4] - f[4] + f[8] <= 933270.2260630187
 9a[8,5]: 1e+06 x[8,5] - f[5] + f[8] <= 944397.6323478346
 9a[8,6]: 1e+06 x[8,6] - f[6] + f[8] <= 985058.9459863747
 9a[8,7]: 1e+06 x[8,7] - f[7] + f[8] <= 983326.73323216
 9b[1]: 1e+06 x[1,0] + f[1] - z[1] <= 951001.8153261391
 9b[2]: 1e+06 x[2,0] + f[2] - z[2] <= 926902.0188416983
 9b[3]: 1e+06 x[3,0] + f[3] - z[3] <= 940033.5591703232
 9b[4]: 1e+06 x[4,0] + f[4] - z[4] <= 919794.0639220952
 9b[5]: 1e+06 x[5,0] + f[5] - z[5] <= 962707.3670839054
 9b[6]: 1e+06 x[6,0] + f[6] - z[6] <= 947464.5011392597
 9b[7]: 1e+06 x[7,0] + f[7] - z[7] <= 945701.0624226817
 9b[8]: 1e+06 x[8,0] + f[8] - z[8] <= 939557.4404867458
 9c[1]: - 1e+06 x[1,0] + z[1] <= 0
 9c[2]: - 1e+06 x[2,0] + z[2] <= 0
 9c[3]: - 1e+06 x[3,0] + z[3] <= 0
 9c[4]: - 1e+06 x[4,0] + z[4] <= 0
 9c[5]: - 1e+06 x[5,0] + z[5] <= 0
 9c[6]: - 1e+06 x[6,0] + z[6] <= 0
 9c[7]: - 1e+06 x[7,0] + z[7] <= 0
 9c[8]: - 1e+06 x[8,0] + z[8] <= 0
Bounds
Binaries
 x[0,1] x[0,2] x[0,3] x[0,4] x[0,5] x[0,6] x[0,7] x[0,8] x[1,0] x[1,2]
 x[1,3] x[1,4] x[1,5] x[1,6] x[1,7] x[1,8] x[2,0] x[2,1] x[2,3] x[2,4]
 x[2,5] x[2,6] x[2,7] x[2,8] x[3,0] x[3,1] x[3,2] x[3,4] x[3,5] x[3,6]
 x[3,7] x[3,8] x[4,0] x[4,1] x[4,2] x[4,3] x[4,5] x[4,6] x[4,7] x[4,8]
 x[5,0] x[5,1] x[5,2] x[5,3] x[5,4] x[5,6] x[5,7] x[5,8] x[6,0] x[6,1]
 x[6,2] x[6,3] x[6,4] x[6,5] x[6,7] x[6,8] x[7,0] x[7,1] x[7,2] x[7,3]
 x[7,4] x[7,5] x[7,6] x[7,8] x[8,0] x[8,1] x[8,2] x[8,3] x[8,4] x[8,5]
 x[8,6] x[8,7] sigma[1,1] sigma[1,2] sigma[1,3] sigma[1,4] sigma[1,5]
 sigma[1,6] sigma[1,7] sigma[1,8] sigma[2,1] sigma[2,2] sigma[2,3]
 sigma[2,4] sigma[2,5] sigma[2,6] sigma[2,7] sigma[2,8] sigma[3,1]
 sigma[3,2] sigma[3,3] sigma[3,4] sigma[3,5] sigma[3,6] sigma[3,7]
 sigma[3,8] sigma[4,1] sigma[4,2] sigma[4,3] sigma[4,4] sigma[4,5]
 sigma[4,6] sigma[4,7] sigma[4,8] sigma[5,1] sigma[5,2] sigma[5,3]
 sigma[5,4] sigma[5,5] sigma[5,6] sigma[5,7] sigma[5,8] sigma[6,1]
 sigma[6,2] sigma[6,3] sigma[6,4] sigma[6,5] sigma[6,6] sigma[6,7]
 sigma[6,8] sigma[7,1] sigma[7,2] sigma[7,3] sigma[7,4] sigma[7,5]
 sigma[7,6] sigma[7,7] sigma[7,8] sigma[8,1] sigma[8,2] sigma[8,3]
 sigma[8,4] sigma[8,5] sigma[8,6] sigma[8,7] sigma[8,8]
End
